
Gurobi 6.0.4 (mac64) logging started Thu Mar 24 17:21:10 2016


Gurobi 6.0.4 (mac64) logging started Thu Mar 24 17:22:11 2016


Gurobi 6.0.4 (mac64) logging started Thu Mar 24 21:05:33 2016


Gurobi 6.0.4 (mac64) logging started Thu Mar 24 21:15:17 2016


Gurobi 6.0.4 (mac64) logging started Thu Mar 24 21:23:19 2016


Gurobi 6.0.4 (mac64) logging started Thu Mar 24 21:24:38 2016


Gurobi 6.0.4 (mac64) logging started Thu Mar 24 21:24:47 2016


Gurobi 6.0.4 (mac64) logging started Thu Mar 24 21:24:53 2016


Gurobi 6.0.4 (mac64) logging started Thu Mar 24 21:25:05 2016


Gurobi 6.0.4 (mac64) logging started Thu Mar 24 21:25:13 2016


Gurobi 6.0.4 (mac64) logging started Thu Mar 24 21:25:59 2016


Gurobi 6.0.4 (mac64) logging started Thu Mar 24 21:31:20 2016


Gurobi 6.0.4 (mac64) logging started Thu Mar 24 22:00:47 2016


Gurobi 6.0.4 (mac64) logging started Thu Mar 24 22:01:49 2016

